Maximize
 obj: 0 X1
Subject To
 c1:
  + 3570 X1 + 9880 X2 + 8140 X3 + 5750 X4 + 7770 X5 + 3550 X6 + 4250 X7 + 7440 X8
  + 8820 X9 + 8900 X10
  <= 34030
 obj1:
  + 737 X1 + 659 X2 + 218 X3 + 790 X4 + 542 X5 + 850 X6 + 968 X7 + 527 X8
  + 466 X9 + 91 X10
  >= 1
 obj2:
  + 823 X1 + 38 X2 + 83 X3 + 125 X4 + 706 X5 + 826 X6 + 304 X7 + 739 X8
  + 845 X9 + 519 X10
  >= 2
 obj3:
  + 959 X1 + 830 X2 + 699 X3 + 337 X4 + 604 X5 + 574 X6 + 303 X7 + 25 X8
  + 251 X9 + 155 X10
  >= 3
Binary
 X1
 X2
 X3
 X4
 X5
 X6
 X7
 X8
 X9
 X10
End
